Maximize 
  Obj:120 x1+170 x2+180 x3+252 x4
Subject To
c1:x1<=20
c2:15 x1+ 20 x2+22 x3+30 x4<=1500
c3:30 x1+40 x2+ 50 x3+ 60 x4<=2000
c4:x1+2 x2 +2 x3+ 3x4<=100
Bounds
x1>=10
x2>=10
x3>=10
x4>=10  
End
